(set-info :source |printed by MathSAT|)
(declare-fun ldv_mutex () (_ BitVec 32))

*:
(assert (let ((.def_15440 (= ldv_mutex (_ bv1 32)))).def_15440))
(assert (let ((.def_15445 (= ldv_mutex (_ bv2 32)))).def_15445))

